! B3LYP/G TightSCF NMGrad RIJCOSX GRID6 GRIDX6 RI-SOMF(1X)
! PrintBasis 6-31G(d,p)

%tddft
      	nroots 5
end

%rr
   	states 1,2,3,4,5
        HessName "geo.hess"
        ASAInput true
end

* xyzfile 0  1 geo.xyz
